(declare-rel inv2 (Int Int Int Int))
(declare-rel fail ())
(declare-var A Int)
(declare-var B Int)
(declare-var C Int)
(declare-var D Int)
(declare-var E Int)
(declare-var F Int)
(rule (=> (and (= E 0) (= F 0) (= B A) (> A 0) (>= 50 A)) (inv2 E F B A)))
(rule (let ((a!1 (= C (ite (< (* E 5) F) (+ E 1) (div E 10))))
      (a!2 (= D (ite (< (* E 5) F) F (+ 1 F)))))
  (=> (and (inv2 E F B A) a!1 a!2) (inv2 C D B A))))
(rule (=> (and (inv2 E F B A) (> F B) (not (> F E))) fail))
(query fail)

